c --- [ banner ] -------------------------------------------------------------
c 
c CaDiCaL Radically Simplified CDCL SAT Solver
c Copyright (c) 2016-2021 A. Biere, M. Fleury, N. Froleyks
c 
c Version 1.5.2 a5f15211db36c3956764e18194dd5bd63bf3b5e6
c g++ (GCC) 9.3.0 -Wall -Wextra -O3 -DNDEBUG
c Fri Oct 21 01:27:37 EDT 2022 Linux gra-login3 3.10.0-1160.66.1.el7.x86_64 x86_64
c 
c --- [ limit ] --------------------------------------------------------------
c 
c setting conflict limit to 200000 conflicts (due to '200000')
c 
c --- [ parsing input ] ------------------------------------------------------
c 
c reading DIMACS file from '23.cubes9.adj'
c opening file to read '23.cubes9.adj'
c found 'p cnf 5320 914888' header
c parsed 914888 clauses in 8.10 seconds process time
c closing file '23.cubes9.adj'
c after reading 637829966 bytes 608.3 MB
c 
c --- [ options ] ------------------------------------------------------------
c 
c all options are set to their default value
c 
c --- [ solving ] ------------------------------------------------------------
c 
c time measured in process time since initialization
c 
c  seconds   reductions  redundant  irredundant
c          MB    restarts       trail      variables
c           level   conflicts       glue        remaining
c 
c *  8.10 626  0 0   0    0    0  0% 0 914847 2047 38%
c {  8.37 646  0 0   0    0    0  0% 0 914847 2047 38%
c i 10.06 694 266 0  18   95   79 27% 19 914847 2046 38%
c i 10.06 694 263 0  18   96   79 27% 19 914847 2045 38%
c i 10.06 694 257 0  18   98   80 27% 19 914847 2044 38%
c i 10.14 695 252 0  18  100   81 27% 19 914847 2043 38%
c i 10.77 701 189 0  25  140  115 27% 20 914847 2042 38%
c i 10.99 704 182 0  27  154  128 27% 21 914847 2041 38%
c i 11.10 705 176 0  30  166  137 27% 21 914847 2040 38%
c i 11.11 705 175 0  31  167  137 27% 21 914847 2039 38%
c i 11.11 705 173 0  31  169  138 27% 21 914847 2038 38%
c i 11.15 705 167 0  33  182  145 26% 21 914847 2033 38%
c i 11.18 705 164 0  34  187  149 26% 22 914847 2032 38%
c i 11.18 705 164 0  34  188  149 26% 22 914847 2031 38%
c i 11.18 705 163 0  34  189  149 26% 21 914847 2030 38%
c i 11.19 705 162 0  35  190  149 26% 21 914847 2029 38%
c i 11.19 705 161 0  35  191  149 26% 21 914847 2028 38%
c i 11.19 705 160 0  35  192  149 26% 21 914847 2027 38%
c i 11.26 705 153 0  35  203  158 26% 21 914847 2026 38%
c i 11.38 706 149 0  37  215  168 26% 22 914847 2024 38%
c 
c  seconds    reductions  redundant   irredundant
c          MB     restarts       trail       variables
c            level   conflicts       glue         remaining
c 
c i 11.63 708 142 0  40  244  189 26% 21 914847 2023 38%
c i 11.79 708 140 0  40  257  198 25% 21 914847 2022 38%
c i 11.81 708 139 0  40  263  203 26% 21 914847 2021 38%
c i 11.84 708 139 0  40  266  204 26% 21 914847 2019 38%
c i 11.85 708 139 0  40  275  208 26% 22 914847 2018 38%
c - 14.46 671 131 1  43  301  226 25% 21 503202 2018 38%
c i 14.64 673 129 1  43  327  245 25% 21 503202 2012 38%
c i 14.68 673 129 1  43  334  246 25% 21 503202 2011 38%
c i 14.69 673 129 1  43  335  246 25% 21 503202 2010 38%
c i 14.69 673 129 1  43  346  253 25% 20 503202 2006 38%
c i 14.72 673 129 1  44  359  265 24% 21 503202 2005 38%
c i 14.77 673 128 1  46  365  270 24% 21 503202 2004 38%
c i 14.77 673 128 1  46  367  271 25% 21 503202 2003 38%
c i 14.79 673 128 1  47  370  273 25% 22 503202 2002 38%
c i 14.88 674 128 1  49  375  277 25% 22 503202 2001 38%
c i 14.94 674 127 1  50  378  278 25% 22 503202 2000 38%
c i 14.94 674 127 1  50  379  278 25% 22 503202 1999 38%
c i 14.94 674 126 1  50  380  278 24% 22 503202 1998 38%
c i 14.94 674 126 1  51  381  278 24% 22 503202 1997 38%
c i 14.94 674 125 1  51  382  278 24% 21 503202 1996 38%
c 
c  seconds    reductions  redundant   irredundant
c          MB     restarts       trail       variables
c            level   conflicts       glue         remaining
c 
c i 14.94 674 125 1  51  383  278 24% 21 503202 1995 38%
c i 14.94 674 125 1  52  384  278 24% 21 503202 1994 37%
c i 14.96 674 124 1  53  391  284 24% 22 503202 1993 37%
c i 15.01 674 120 1  57  407  297 24% 22 503202 1983 37%
c i 15.15 674 101 1  61  499  340 23% 21 503202 1982 37%
c i 15.16 674 101 1  61  500  340 23% 21 503202 1981 37%
c i 15.16 674 101 1  61  501  340 23% 20 503202 1980 37%
c i 15.17 674 101 1  61  503  341 23% 20 503202 1979 37%
c i 15.17 674 100 1  61  504  341 23% 20 503202 1978 37%
c i 15.17 674 100 1  61  505  341 23% 20 503202 1977 37%
c i 15.17 674 100 1  61  506  341 23% 20 503202 1976 37%
c i 15.17 674 100 1  61  507  341 23% 20 503202 1975 37%
c i 15.17 674 100 1  61  508  341 23% 20 503202 1974 37%
c i 15.17 674 98 1  61  516  348 23% 20 503202 1973 37%
c i 15.18 674 98 1  61  527  350 23% 20 503202 1969 37%
c i 15.32 674 99 1  61  541  360 23% 20 503202 1968 37%
c i 15.33 674 99 1  61  550  368 23% 20 503202 1967 37%
c i 15.42 674 98 1  63  570  384 23% 21 503202 1966 37%
c i 15.43 674 98 1  64  571  384 23% 21 503202 1965 37%
c i 15.43 674 98 1  64  573  385 23% 21 503202 1964 37%
c 
c  seconds   reductions  redundant   irredundant
c          MB    restarts       trail       variables
c           level   conflicts       glue         remaining
c 
c i 15.43 674 98 1  64  574  385 23% 20 503202 1963 37%
c i 15.43 674 98 1  64  575  385 23% 20 503202 1962 37%
c i 15.43 674 97 1  64  576  385 23% 20 503202 1961 37%
c i 15.43 674 97 1  64  579  386 23% 20 503202 1960 37%
c i 15.45 674 97 1  64  582  388 23% 20 503202 1959 37%
c i 15.49 674 96 1  65  586  391 23% 21 503202 1958 37%
c i 15.49 674 96 1  65  587  391 23% 20 503202 1957 37%
c i 15.66 675 93 1  69  628  429 23% 21 503202 1956 37%
c i 15.70 675 92 1  69  637  436 23% 20 503202 1955 37%
c i 15.70 675 92 1  69  638  436 23% 20 503202 1954 37%
c i 15.70 675 92 1  69  639  436 23% 20 503202 1953 37%
c i 15.70 675 91 1  69  645  441 23% 20 503202 1952 37%
c i 15.70 675 91 1  69  647  442 23% 20 503202 1951 37%
c i 15.71 675 90 1  69  658  450 23% 20 503202 1950 37%
c i 15.73 675 89 1  69  665  455 23% 20 503202 1949 37%
c i 15.73 675 89 1  69  666  455 23% 20 503202 1948 37%
c i 15.73 675 89 1  69  667  455 23% 20 503202 1947 37%
c i 15.73 675 89 1  69  668  455 23% 20 503202 1946 37%
c i 15.73 675 88 1  69  669  455 23% 20 503202 1945 37%
c i 15.74 675 88 1  69  670  455 23% 20 503202 1944 37%
c 
c  seconds   reductions  redundant   irredundant
c          MB    restarts       trail       variables
c           level   conflicts       glue         remaining
c 
c i 15.74 675 88 1  69  671  455 23% 20 503202 1943 37%
c i 15.74 675 88 1  69  672  455 23% 20 503202 1942 37%
c i 15.74 675 88 1  69  674  456 23% 20 503202 1941 36%
c i 15.75 675 87 1  69  679  460 23% 20 503202 1940 36%
c i 15.76 675 86 1  69  689  467 23% 20 503202 1939 36%
c i 15.84 675 83 1  76  761  527 23% 20 503202 1938 36%
c i 15.86 675 83 1  77  765  530 23% 20 503202 1937 36%
c i 15.86 675 83 1  77  766  530 23% 20 503202 1936 36%
c i 15.89 675 81 1  77  787  549 23% 20 503202 1935 36%
c i 15.89 675 81 1  77  792  553 23% 20 503202 1934 36%
c i 15.90 675 79 1  77  819  576 23% 20 503202 1933 36%
c i 15.90 675 79 1  77  820  576 23% 20 503202 1932 36%
c i 15.90 675 78 1  77  825  580 23% 19 503202 1931 36%
c i 15.92 675 74 1  77  888  622 23% 19 503202 1930 36%
c i 15.92 675 74 1  77  889  622 23% 19 503202 1929 36%
c i 15.92 675 74 1  77  890  622 23% 19 503202 1928 36%
c i 15.93 675 74 1  77  896  626 23% 19 503202 1926 36%
c i 15.93 675 74 1  77  901  630 23% 19 503202 1925 36%
c } 16.06 675 72 1  82 1000  703 23% 19 503202 1925 36%
c [ 16.06 675  0 1  82 1000  703  0% 0 503202 1925 36%
c 
c  seconds   reductions  redundant  irredundant
c          MB    restarts       trail      variables
c           level   conflicts       glue        remaining
c 
c O 16.07 675 11 1  82 1002  705 23% 9 503202 1925 36%
c i 16.09 675  5 1  82 1161  722 19% 5 503202 1924 36%
c i 16.09 675  5 1  82 1164  724 19% 5 503202 1923 36%
c - 17.04 845  9 2  82 1323  749 23% 8 502763 1923 36%
c i 17.45 845 12 2  82 1589  973 25% 10 502763 1922 36%
c i 17.47 845 12 2  82 1630  995 25% 10 502763 1921 36%
c i 18.08 845 18 2  83 2761 1740 26% 14 502763 1920 36%
c - 18.61 843 17 3  83 2855 1473 26% 14 502754 1920 36%
c ] 19.21 843 18 3  83 3001 1554 46% 14 502754 1920 36%
c { 19.21 843 72 3  83 3001 1554 64% 19 502754 1920 36%
c F 19.22 843 72 3  83 3004 1557 64% 19 502754 1920 36%
c i 19.70 843 60 3  84 3387 1810 55% 16 502754 1916 36%
c i 19.73 843 59 3  87 3425 1827 54% 16 502754 1915 36%
c i 19.86 843 59 3  90 3502 1886 53% 16 502754 1914 36%
c i 19.88 843 59 3  90 3511 1894 53% 16 502754 1913 36%
c i 22.50 843 42 3 142 4734 2726 46% 14 502754 1912 36%
c - 23.44 802 41 4 155 4898 2020 45% 14 501117 1912 36%
c d 24.15 802 40 4 158 5000 2033 45% 14 474978 1892 36%
c 3 24.20 802 40 4 158 5000 2811 45% 14 474978 1892 36%
c p 28.78 802 40 4 158 5000 5298 45% 14 474978 1881 35%
c 
c  seconds   reductions  redundant   irredundant
c          MB    restarts       trail       variables
c           level   conflicts       glue         remaining
c 
c d 29.24 802 40 4 158 5000 5202 45% 14 474917 1879 35%
c # 31.65 802 37 4 273 6006 5665 41% 15 474917 1879 35%
c } 34.29 802 34 4 336 7004 6366 42% 15 474917 1879 35%
c [ 34.29 802 18 4 336 7004 6366 46% 14 474917 1879 35%
c - 35.13 793 17 5 337 7449 2669 47% 14 474917 1879 35%
c ] 36.47 793 15 5 338 9516 3767 48% 13 474917 1879 35%
c 1 36.47 793 15 5 338 9516 3767 48% 13 474917 1879 35%
c 
c --- [ writing output ] -----------------------------------------------------
c 
c writing simplified CNF to DIMACS file 'simp/23.cubes9.adj.simp1'
c * 36.47 793 15 5 338 9516 3767 48% 13 474917 1879 35%
c opening file to write 'simp/23.cubes9.adj.simp1'
c writing 'p cnf 5320 474917' header
c closing file 'simp/23.cubes9.adj.simp1'
c after writing 164230112 bytes 156.6 MB
c wrote 474917 clauses in 1.22 seconds process time
c 
c --- [ writing extension ] --------------------------------------------------
c 
c writing extension stack to 'simp/23.cubes9.adj.ext1'
c opening file to write 'simp/23.cubes9.adj.ext1'
c closing file 'simp/23.cubes9.adj.ext1'
c after writing 9406 bytes 0.0 MB
c wrote 626 witnesses in 0.00 seconds process time
c 
c --- [ result ] -------------------------------------------------------------
c 
s SATISFIABLE
c 
c --- [ run-time profiling ] -------------------------------------------------
c 
c process time taken by individual solving procedures
c (percentage relative to process time for solving)
c 
c        22.57   79.54% search
c        16.98   59.84% unstable
c         8.10   28.55% parse
c         5.80   20.46% simplify
c         5.32   18.75% stable
c         4.48   15.81% probe
c         0.27    0.95% lucky
c         0.07    0.26% ternary
c   =================================
c        28.37   75.27% solve
c 
c last line shows process time for solving
c (percentage relative to total process time)
c 
c --- [ statistics ] ---------------------------------------------------------
c 
c chronological:              2578        27.09 %  of conflicts
c conflicts:                  9516       335.44    per second
c decisions:                 40279      1419.85    per second
c fixed:                       582        10.94 %  of all variables
c learned:                    9281        97.53 %  per conflict
c learned_lits:            1004656       100.00 %  learned literals
c minimized:                     0         0.00 %  learned literals
c shrunken:                 654720        65.17 %  learned literals
c minishrunken:              57218         5.70 %  learned literals
c propagations:            1162932         0.04 M  per second
c reduced:                    2063        21.68 %  per conflict
c rephased:                      3      3172.00    interval
c restarts:                    338        28.15    interval
c stabilizing:                   2        47.43 %  of conflicts
c substituted:                  22         0.41 %  of all variables
c subsumed:                   3412         0.14 %  of all clauses
c ternary:                     856         0.55 %  of resolved
c weakened:                     44         2.00    average size
c 
c seconds are measured in process time for solving
c 
c --- [ resources ] ----------------------------------------------------------
c 
c total process time since initialization:        37.69    seconds
c total real time since initialization:           37.73    seconds
c maximum resident set size of process:         1012.86    MB
c 
c --- [ shutting down ] ------------------------------------------------------
c 
c exit 10
WARNING! DIMACS header mismatch: wrong number of variables.
============================[ Problem Statistics ]=============================
|                                                                             |
|  Number of variables:          5282                                         |
|  Number of clauses:          474921                                         |
|  Parse time:                   2.36 s                                       |
|  Simplification time:          0.07 s                                       |
|                                                                             |
============================[ Search Statistics ]====================================================
| Conflicts |          ORIGINAL         |          LEARNT          | Num Sols |      SUBGRAPHS      |
|           |    Vars  Clauses Literals |    Limit  Clauses Lit/Cl |          | Canonical Noncanon. |
=====================================================================================================
|       100 |    5208   474921 38525486 |     2000      100     75 |        0 |        16         0 |
|       293 |    5208   474964 38526382 |     2000      293     49 |        0 |        64        43 |
|       541 |    5208   474987 38526906 |     2000      541     45 |        0 |        99        66 |
|       986 |    5208   475095 38529361 |     2000      986     43 |        0 |       144       174 |
|      1634 |    5208   475237 38532335 |     2000     1634     46 |        0 |       210       316 |
|      2449 |    5208   475293 38534253 |     3601     1450     25 |        0 |       299       372 |
|      3684 |    5208   475389 38536391 |     3601     2685     40 |        0 |       334       468 |
|      5651 |    5208   475648 38542915 |     5004     2855     42 |        0 |       445       727 |
|      8386 |    5208   475821 38547290 |     6303     3089     36 |        0 |       545       900 |
|     12440 |    5208   476031 38551613 |     7558     3998     37 |        0 |       817      1110 |
|     18508 |    5208   476333 38558693 |     8790     6298     48 |        0 |      1155      1412 |
|     27598 |    5208   476774 38566119 |    11203     6001     38 |        0 |      1647      1853 |
|     41223 |    5208   477425 38582307 |    13608     7831     35 |        0 |      2528      2504 |
|     62416 |    5208   479157 38614871 |    16003    14819     47 |        0 |      3790      4236 |
|     93587 |    5208   481136 38652243 |    20814    10401     27 |        0 |      5380      6215 |
|    141442 |    5208   485202 38719602 |    25610    13052     26 |        0 |      7964     10281 |
|    213117 |    5188   491193 38809449 |    30426    29943     53 |        0 |     12873     16272 |
=====================================================================================================
Number of solutions   : 0
Canonical subgraphs   : 18454          (271 /sec)
          order  3    : 1              (142857 /sec)
          order  4    : 1              (500000 /sec)
          order  5    : 1              (200000 /sec)
          order  6    : 2              (52632 /sec)
          order  7    : 4              (14652 /sec)
          order  8    : 9              (3518 /sec)
          order  9    : 33             (1047 /sec)
          order 10    : 169            (399 /sec)
          order 11    : 1050           (406 /sec)
          order 12    : 3702           (338 /sec)
          order 13    : 4055           (322 /sec)
          order 14    : 3211           (251 /sec)
          order 15    : 2818           (227 /sec)
          order 16    : 2473           (213 /sec)
          order 17    : 821            (192 /sec)
          order 18    : 97             (197 /sec)
          order 19    : 4              (279 /sec)
          order 20    : 3              (269 /sec)
          order 21    : 0              (-nan /sec)
Noncanonical subgraphs: 26186          (2220 /sec)
          order  3    : 0              (-nan /sec)
          order  4    : 0              (-nan /sec)
          order  5    : 0              (-nan /sec)
          order  6    : 0              (-nan /sec)
          order  7    : 0              (-nan /sec)
          order  8    : 0              (-nan /sec)
          order  9    : 0              (-nan /sec)
          order 10    : 0              (-nan /sec)
          order 11    : 0              (-nan /sec)
          order 12    : 0              (-nan /sec)
          order 13    : 23224          (2376 /sec)
          order 14    : 2820           (1434 /sec)
          order 15    : 109            (3205 /sec)
          order 16    : 26             (3488 /sec)
          order 17    : 3              (2933 /sec)
          order 18    : 1              (111111 /sec)
          order 19    : 0              (-nan /sec)
          order 20    : 0              (-nan /sec)
Canonicity checking   : 68.1832 s
Noncanonicity checking: 11.7941 s
Total canonicity time : 79.9773 s
database reductions   : 28
restarts              : 708
conflicts             : 296118         (1051 /sec)
decisions             : 450461         (0.00 % random) (1599 /sec)
propagations          : 32248119       (114497 /sec)
conflict literals     : 21849946       (52.24 % deleted)
actual reward         : 0.118567
Memory used           : 464.00 MB
CPU time              : 281.649 s

UNSATISFIABLE
